50
15413

413 267
716 505
959 745
294 994
404 518
318 729
530 859
254 444
820 668
197 89
525 59
280 399
883 471
794 544
460 584
78 489
266 111
410 503
333 220
591 52
93 394
110 554
784 881
366 578
570 485
860 361
6 288
336 778
451 395
550 242
961 774
352 425
924 620
977 75
373 78
242 98
712 230
165 54
993 64
105 21
399 995
218 623
304 198
914 687
486 884
356 146
219 974
852 297
398 324
620 828
